\* Probes_Placement_Model *\
Maximize
Total_Cost: SDMC_0_1_0_0 + 3 SDMC_0_2_0_0 + 4 SDMC_0_3_0_0 + SDMC_0_4_0_0
 + 7 SDMC_0_5_0_0 + 2 SDMC_0_6_0_0 + SDMC_0_7_0_0 + 6 SDMC_1_2_0_0
 + 4 SDMC_1_3_0_0 + SDMC_1_4_0_0 + 3 SDMC_1_5_0_0 + 2 SDMC_1_6_0_0
 + SDMC_1_7_0_0 + 11 SDMC_2_3_0_0 + 4 SDMC_2_4_0_0 + 9 SDMC_2_5_0_0
 + 6 SDMC_2_6_0_0 + 3 SDMC_2_7_0_0 + 2 SDMC_3_4_0_0 + 12 SDMC_3_5_0_0
 + 8 SDMC_3_6_0_0 + 4 SDMC_3_7_0_0 + 3 SDMC_4_5_0_0 + 2 SDMC_4_6_0_0
 + SDMC_4_7_0_0 + 12 SDMC_5_6_0_0 + 6 SDMC_5_7_0_0 + 7 SDMC_6_7_0_0
Subject To
Max_Probes_Link0_5: SDMC_0_5_0_0 + SDMC_5_0_0_0 + SDMC_5_0_1_0 <= 3
Max_Probes_Link1_2: SDMC_1_2_0_0 + SDMC_1_2_1_0 + SDMC_2_1_0_0 + SDMC_2_1_1_0
 + SDMC_2_1_2_0 + SDMC_2_1_3_0 <= 10
Max_Probes_Link2_3: SDMC_2_3_0_0 + SDMC_2_3_1_0 + SDMC_2_3_2_0 + SDMC_2_3_3_0
 + SDMC_3_2_0_0 + SDMC_3_2_1_0 + SDMC_3_2_2_0 + SDMC_3_2_3_0 + SDMC_3_2_4_0
 + SDMC_3_2_5_0 + SDMC_3_2_6_0 + SDMC_3_2_7_0 <= 3
Max_Probes_Link2_4: SDMC_2_4_0_0 + SDMC_2_4_1_0 + SDMC_2_4_2_0 + SDMC_2_4_3_0
 + SDMC_4_2_0_0 + SDMC_4_2_1_0 + SDMC_4_2_2_0 + SDMC_4_2_3_0 + SDMC_4_2_4_0
 + SDMC_4_2_5_0 + SDMC_4_2_6_0 + SDMC_4_2_7_0 <= 10
Max_Probes_Link3_5: SDMC_3_5_0_0 + SDMC_3_5_1_0 + SDMC_3_5_2_0 + SDMC_3_5_3_0
 + SDMC_3_5_4_0 + SDMC_3_5_5_0 + SDMC_3_5_6_0 + SDMC_3_5_7_0 + SDMC_5_3_0_0
 + SDMC_5_3_1_0 <= 10
Max_Probes_Link5_6: SDMC_5_6_0_0 + SDMC_5_6_1_0 + SDMC_6_5_0_0 + SDMC_6_5_1_0
 + SDMC_6_5_2_0 + SDMC_6_5_3_0 <= 10
Max_Probes_Link6_7: SDMC_6_7_0_0 + SDMC_6_7_1_0 + SDMC_6_7_2_0 + SDMC_6_7_3_0
 + SDMC_7_6_0_0 <= 10
Max_Probes_Router0: SDMC_0_1_0_0 + SDMC_0_2_0_0 + SDMC_0_3_0_0 + SDMC_0_4_0_0
 + SDMC_0_5_0_0 + SDMC_0_6_0_0 + SDMC_0_7_0_0 <= 1
Max_Probes_Router1: SDMC_1_0_0_0 + SDMC_1_2_0_0 + SDMC_1_3_0_0 + SDMC_1_4_0_0
 + SDMC_1_5_0_0 + SDMC_1_6_0_0 + SDMC_1_7_0_0 <= 1
Max_Probes_Router2: SDMC_2_0_0_0 + SDMC_2_1_0_0 + SDMC_2_3_0_0 + SDMC_2_4_0_0
 + SDMC_2_5_0_0 + SDMC_2_6_0_0 + SDMC_2_7_0_0 <= 3
Max_Probes_Router3: SDMC_3_0_0_0 + SDMC_3_1_0_0 + SDMC_3_2_0_0 + SDMC_3_4_0_0
 + SDMC_3_5_0_0 + SDMC_3_6_0_0 + SDMC_3_7_0_0 <= 2
Max_Probes_Router4: SDMC_4_0_0_0 + SDMC_4_1_0_0 + SDMC_4_2_0_0 + SDMC_4_3_0_0
 + SDMC_4_5_0_0 + SDMC_4_6_0_0 + SDMC_4_7_0_0 <= 1
Max_Probes_Router5: SDMC_5_0_0_0 + SDMC_5_1_0_0 + SDMC_5_2_0_0 + SDMC_5_3_0_0
 + SDMC_5_4_0_0 + SDMC_5_6_0_0 + SDMC_5_7_0_0 <= 3
Max_Probes_Router6: SDMC_6_0_0_0 + SDMC_6_1_0_0 + SDMC_6_2_0_0 + SDMC_6_3_0_0
 + SDMC_6_4_0_0 + SDMC_6_5_0_0 + SDMC_6_7_0_0 <= 2
Max_Probes_Router7: SDMC_7_0_0_0 + SDMC_7_1_0_0 + SDMC_7_2_0_0 + SDMC_7_3_0_0
 + SDMC_7_4_0_0 + SDMC_7_5_0_0 + SDMC_7_6_0_0 <= 1
Binaries
SDMC_0_1_0_0
SDMC_0_2_0_0
SDMC_0_3_0_0
SDMC_0_4_0_0
SDMC_0_5_0_0
SDMC_0_6_0_0
SDMC_0_7_0_0
SDMC_1_0_0_0
SDMC_1_2_0_0
SDMC_1_2_1_0
SDMC_1_3_0_0
SDMC_1_4_0_0
SDMC_1_5_0_0
SDMC_1_6_0_0
SDMC_1_7_0_0
SDMC_2_0_0_0
SDMC_2_1_0_0
SDMC_2_1_1_0
SDMC_2_1_2_0
SDMC_2_1_3_0
SDMC_2_3_0_0
SDMC_2_3_1_0
SDMC_2_3_2_0
SDMC_2_3_3_0
SDMC_2_4_0_0
SDMC_2_4_1_0
SDMC_2_4_2_0
SDMC_2_4_3_0
SDMC_2_5_0_0
SDMC_2_6_0_0
SDMC_2_7_0_0
SDMC_3_0_0_0
SDMC_3_1_0_0
SDMC_3_2_0_0
SDMC_3_2_1_0
SDMC_3_2_2_0
SDMC_3_2_3_0
SDMC_3_2_4_0
SDMC_3_2_5_0
SDMC_3_2_6_0
SDMC_3_2_7_0
SDMC_3_4_0_0
SDMC_3_5_0_0
SDMC_3_5_1_0
SDMC_3_5_2_0
SDMC_3_5_3_0
SDMC_3_5_4_0
SDMC_3_5_5_0
SDMC_3_5_6_0
SDMC_3_5_7_0
SDMC_3_6_0_0
SDMC_3_7_0_0
SDMC_4_0_0_0
SDMC_4_1_0_0
SDMC_4_2_0_0
SDMC_4_2_1_0
SDMC_4_2_2_0
SDMC_4_2_3_0
SDMC_4_2_4_0
SDMC_4_2_5_0
SDMC_4_2_6_0
SDMC_4_2_7_0
SDMC_4_3_0_0
SDMC_4_5_0_0
SDMC_4_6_0_0
SDMC_4_7_0_0
SDMC_5_0_0_0
SDMC_5_0_1_0
SDMC_5_1_0_0
SDMC_5_2_0_0
SDMC_5_3_0_0
SDMC_5_3_1_0
SDMC_5_4_0_0
SDMC_5_6_0_0
SDMC_5_6_1_0
SDMC_5_7_0_0
SDMC_6_0_0_0
SDMC_6_1_0_0
SDMC_6_2_0_0
SDMC_6_3_0_0
SDMC_6_4_0_0
SDMC_6_5_0_0
SDMC_6_5_1_0
SDMC_6_5_2_0
SDMC_6_5_3_0
SDMC_6_7_0_0
SDMC_6_7_1_0
SDMC_6_7_2_0
SDMC_6_7_3_0
SDMC_7_0_0_0
SDMC_7_1_0_0
SDMC_7_2_0_0
SDMC_7_3_0_0
SDMC_7_4_0_0
SDMC_7_5_0_0
SDMC_7_6_0_0
End
